B=5;
D=1;
P=8;
S=8;
demands = [4 2 5 4 4 4 5 4 ];
capacities = [8 5 7 3 5 2 10 9 ];
dist_start = [6 6 1 3 7 3 1 10 ];
dist = [2 7 9 1 9 1 1 1 7 9 7 5 6 10 4 2 1 4 4 3 8 7 8 5 9 10 2 1 2 1 6 4 8 4 6 6 4 8 8 2 6 4 6 3 4 9 4 6 4 8 10 3 4 7 8 4 9 9 4 10 1 1 5 8 ];
